Welcome to the CBC MILP Solver
Version: Devel (unstable)
Build Date: Feb  6 2022
command line - -import /home/danilo/psp-janniele/J30/j3050/j3050_10.lp -timeM elapsed -seconds 10800 -solve -quit (default strategy 1)
seconds was changed from 1e+08 to 10800
Continuous objective value is 0 - 0.038866 seconds
Cgl0002I 27 variables fixed
Cgl0003I 0 fixed, 0 tightened bounds, 11 strengthened rows, 0 substitutions
Cgl0003I 0 fixed, 0 tightened bounds, 10 strengthened rows, 0 substitutions
Cgl0003I 0 fixed, 0 tightened bounds, 10 strengthened rows, 0 substitutions
Cgl0003I 0 fixed, 0 tightened bounds, 8 strengthened rows, 0 substitutions
Cgl0003I 0 fixed, 0 tightened bounds, 8 strengthened rows, 0 substitutions
Cgl0003I 0 fixed, 0 tightened bounds, 8 strengthened rows, 0 substitutions
Cgl0003I 0 fixed, 0 tightened bounds, 8 strengthened rows, 0 substitutions
Cgl0003I 0 fixed, 0 tightened bounds, 8 strengthened rows, 0 substitutions
Cgl0003I 0 fixed, 0 tightened bounds, 8 strengthened rows, 0 substitutions
Cgl0004I processed model has 215 rows, 336 columns (336 integer (335 of which binary)) and 3597 elements
Coin3009W Conflict graph built in 0.004 seconds, density: 1.685%
Cgl0015I Clique Strengthening extended 0 cliques, 0 were dominated
Cbc0045I No integer variables out of 336 objects (336 integer) have costs
Cbc0045I branch on satisfied N create fake objective Y random cost Y
Cbc0038I Initial state - 32 integers unsatisfied sum - 10.472
Cbc0038I Pass   1: suminf.    6.63016 (24) obj. 0 iterations 23
Cbc0038I Pass   2: suminf.    5.77831 (24) obj. 0 iterations 9
Cbc0038I Pass   3: suminf.    5.63696 (25) obj. 0 iterations 2
Cbc0038I Pass   4: suminf.    6.47222 (19) obj. 0 iterations 30
Cbc0038I Pass   5: suminf.    2.95238 (10) obj. 0 iterations 21
Cbc0038I Pass   6: suminf.    2.95238 (10) obj. 0 iterations 0
Cbc0038I Pass   7: suminf.    3.41667 (11) obj. 0 iterations 20
Cbc0038I Pass   8: suminf.    1.33333 (4) obj. 0 iterations 7
Cbc0038I Pass   9: suminf.    1.33333 (4) obj. 0 iterations 4
Cbc0038I Pass  10: suminf.    1.83333 (6) obj. 0 iterations 25
Cbc0038I Pass  11: suminf.    1.83333 (6) obj. 0 iterations 14
Cbc0038I Pass  12: suminf.    2.50000 (6) obj. 0 iterations 7
Cbc0038I Pass  13: suminf.    1.33333 (4) obj. 0 iterations 3
Cbc0038I Pass  14: suminf.    1.33333 (4) obj. 0 iterations 2
Cbc0038I Pass  15: suminf.    7.74444 (20) obj. 0 iterations 48
Cbc0038I Pass  16: suminf.    4.58333 (14) obj. 0 iterations 33
Cbc0038I Pass  17: suminf.    2.66667 (6) obj. 0 iterations 3
Cbc0038I Pass  18: suminf.    1.66667 (4) obj. 0 iterations 8
Cbc0038I Pass  19: suminf.    1.66667 (4) obj. 0 iterations 3
Cbc0038I Pass  20: suminf.    1.66667 (4) obj. 0 iterations 3
Cbc0038I Pass  21: suminf.    5.94242 (16) obj. 0 iterations 46
Cbc0038I Pass  22: suminf.    5.63131 (15) obj. 0 iterations 21
Cbc0038I Pass  23: suminf.    5.13131 (15) obj. 0 iterations 5
Cbc0038I Pass  24: suminf.    6.04127 (18) obj. 0 iterations 21
Cbc0038I Pass  25: suminf.    4.36667 (12) obj. 0 iterations 10
Cbc0038I Pass  26: suminf.    3.53333 (10) obj. 0 iterations 6
Cbc0038I Pass  27: suminf.    2.93333 (10) obj. 0 iterations 8
Cbc0038I Pass  28: suminf.    3.40000 (10) obj. 0 iterations 10
Cbc0038I Pass  29: suminf.    3.40000 (10) obj. 0 iterations 10
Cbc0038I Pass  30: suminf.    4.36667 (12) obj. 0 iterations 11
Cbc0038I Pass  31: suminf.    3.53333 (10) obj. 0 iterations 6
Cbc0038I Pass  32: suminf.    2.93333 (10) obj. 0 iterations 9
Cbc0038I Pass  33: suminf.    3.40000 (10) obj. 0 iterations 11
Cbc0038I Pass  34: suminf.    3.40000 (10) obj. 0 iterations 10
Cbc0038I Pass  35: suminf.    4.36667 (12) obj. 0 iterations 11
Cbc0038I Pass  36: suminf.    3.20000 (10) obj. 0 iterations 10
Cbc0038I Pass  37: suminf.    3.66667 (10) obj. 0 iterations 33
Cbc0038I Pass  38: suminf.    3.62963 (11) obj. 0 iterations 30
Cbc0038I Pass  39: suminf.    3.00000 (10) obj. 0 iterations 13
Cbc0038I Pass  40: suminf.    2.86667 (8) obj. 0 iterations 15
Cbc0038I Pass  41: suminf.    3.06667 (8) obj. 0 iterations 3
Cbc0038I Pass  42: suminf.    3.06667 (8) obj. 0 iterations 2
Cbc0038I Pass  43: suminf.    2.86667 (8) obj. 0 iterations 3
Cbc0038I Pass  44: suminf.    6.92496 (29) obj. 0 iterations 40
Cbc0038I Pass  45: suminf.    3.33810 (14) obj. 0 iterations 46
Cbc0038I Pass  46: suminf.    3.53333 (10) obj. 0 iterations 23
Cbc0038I Pass  47: suminf.    2.53333 (8) obj. 0 iterations 18
Cbc0038I Pass  48: suminf.    2.73333 (8) obj. 0 iterations 7
Cbc0038I Pass  49: suminf.    2.73333 (8) obj. 0 iterations 6
Cbc0038I Pass  50: suminf.    2.53333 (8) obj. 0 iterations 7
Cbc0038I Pass  51: suminf.    4.77778 (15) obj. 0 iterations 61
Cbc0038I Pass  52: suminf.    4.44444 (14) obj. 0 iterations 38
Cbc0038I Pass  53: suminf.    2.11111 (6) obj. 0 iterations 30
Cbc0038I Pass  54: suminf.    1.66667 (4) obj. 0 iterations 17
Cbc0038I Pass  55: suminf.    1.66667 (4) obj. 0 iterations 12
Cbc0038I Pass  56: suminf.    2.00000 (4) obj. 0 iterations 44
Cbc0038I Pass  57: suminf.    1.86486 (6) obj. 0 iterations 35
Cbc0038I Pass  58: suminf.    1.88889 (5) obj. 0 iterations 14
Cbc0038I Pass  59: suminf.    1.88889 (5) obj. 0 iterations 1
Cbc0038I Pass  60: suminf.    1.00000 (2) obj. 0 iterations 19
Cbc0038I Pass  61: suminf.    1.00000 (2) obj. 0 iterations 4
Cbc0038I Pass  62: suminf.    1.00000 (2) obj. 0 iterations 1
Cbc0038I Pass  63: suminf.    6.40043 (23) obj. 0 iterations 58
Cbc0038I Pass  64: suminf.    2.33333 (9) obj. 0 iterations 50
Cbc0038I Pass  65: suminf.    0.66667 (3) obj. 0 iterations 15
Cbc0038I Pass  66: suminf.    0.22222 (2) obj. 0 iterations 4
Cbc0038I Pass  67: suminf.    0.88889 (3) obj. 0 iterations 10
Cbc0038I Pass  68: suminf.    0.22222 (3) obj. 0 iterations 22
Cbc0038I Pass  69: suminf.    7.90794 (32) obj. 0 iterations 55
Cbc0038I Pass  70: suminf.    5.28175 (24) obj. 0 iterations 43
Cbc0038I Pass  71: suminf.    5.16667 (14) obj. 0 iterations 37
Cbc0038I Pass  72: suminf.    2.00000 (6) obj. 0 iterations 23
Cbc0038I Pass  73: suminf.    2.00000 (6) obj. 0 iterations 0
Cbc0038I Pass  74: suminf.    2.77778 (9) obj. 0 iterations 27
Cbc0038I Pass  75: suminf.    2.77778 (9) obj. 0 iterations 10
Cbc0038I Pass  76: suminf.    2.00000 (6) obj. 0 iterations 18
Cbc0038I Pass  77: suminf.    2.00000 (6) obj. 0 iterations 12
Cbc0038I Pass  78: suminf.    2.22222 (8) obj. 0 iterations 15
Cbc0038I Pass  79: suminf.    2.22222 (8) obj. 0 iterations 9
Cbc0038I Pass  80: suminf.    2.00000 (6) obj. 0 iterations 11
Cbc0038I Pass  81: suminf.    2.00000 (6) obj. 0 iterations 13
Cbc0038I Pass  82: suminf.    2.44444 (8) obj. 0 iterations 23
Cbc0038I Pass  83: suminf.    2.44444 (8) obj. 0 iterations 11
Cbc0038I Pass  84: suminf.    2.00000 (6) obj. 0 iterations 13
Cbc0038I Pass  85: suminf.    2.00000 (6) obj. 0 iterations 8
Cbc0038I Pass  86: suminf.    2.22222 (8) obj. 0 iterations 17
Cbc0038I Pass  87: suminf.    2.22222 (8) obj. 0 iterations 9
Cbc0038I Pass  88: suminf.    2.00000 (6) obj. 0 iterations 11
Cbc0038I Pass  89: suminf.    2.00000 (6) obj. 0 iterations 10
Cbc0038I Pass  90: suminf.    2.44444 (8) obj. 0 iterations 13
Cbc0038I Pass  91: suminf.    2.44444 (8) obj. 0 iterations 7
Cbc0038I Pass  92: suminf.    2.00000 (6) obj. 0 iterations 14
Cbc0038I Pass  93: suminf.    2.00000 (6) obj. 0 iterations 15
Cbc0038I Pass  94: suminf.    2.22222 (8) obj. 0 iterations 21
Cbc0038I Pass  95: suminf.    2.22222 (8) obj. 0 iterations 10
Cbc0038I Pass  96: suminf.    2.00000 (6) obj. 0 iterations 13
Cbc0038I Pass  97: suminf.    2.00000 (6) obj. 0 iterations 13
Cbc0038I Pass  98: suminf.    2.44444 (8) obj. 0 iterations 19
Cbc0038I Pass  99: suminf.    2.44444 (8) obj. 0 iterations 10
Cbc0038I Pass 100: suminf.    6.63333 (19) obj. 0 iterations 74
Cbc0038I No solution found this major pass
Cbc0038I Before mini branch and bound, 175 integers at bound fixed and 0 continuous
Cbc0038I Full problem 215 rows 336 columns, reduced to 173 rows 141 columns - too large
Cbc0038I Mini branch and bound did not improve solution (0.72 seconds)
Cbc0038I Full problem 216 rows 336 columns, reduced to 216 rows 336 columns - too large
Cbc0038I After 0.74 seconds - Feasibility pump exiting - took 0.32 seconds
Cbc0012I Integer solution of 0 found by DiveCoefficient after 200 iterations and 0 nodes (0.87 seconds)
Cbc0031I 17 added rows had average density of 39.823529
Cbc0013I At root node, 17 cuts changed objective from 0 to 0 in 4 passes
Cbc0014I Cut generator 0 (Probing) - 17 row cuts average 2.0 elements, 0 column cuts (0 active)  in 0.041 seconds - new frequency is 1
Cbc0014I Cut generator 1 (Gomory) - 27 row cuts average 166.0 elements, 0 column cuts (0 active)  in 0.008 seconds - new frequency is 1
Cbc0014I Cut generator 2 (Knapsack) - 18 row cuts average 14.4 elements, 0 column cuts (0 active)  in 0.017 seconds - new frequency is 1
Cbc0014I Cut generator 3 (Clique) - 0 row cuts average 0.0 elements, 0 column cuts (0 active)  in 0.000 seconds - new frequency is -100
Cbc0014I Cut generator 4 (OddWheel) - 0 row cuts average 0.0 elements, 0 column cuts (0 active)  in 0.002 seconds - new frequency is -100
Cbc0014I Cut generator 5 (MixedIntegerRounding2) - 7 row cuts average 28.1 elements, 0 column cuts (0 active)  in 0.003 seconds - new frequency is 1
Cbc0014I Cut generator 6 (FlowCover) - 0 row cuts average 0.0 elements, 0 column cuts (0 active)  in 0.000 seconds - new frequency is -100
Cbc0014I Cut generator 7 (TwoMirCuts) - 60 row cuts average 102.3 elements, 0 column cuts (0 active)  in 0.013 seconds - new frequency is -100
Cbc0014I Cut generator 8 (ZeroHalf) - 12 row cuts average 33.8 elements, 0 column cuts (0 active)  in 0.003 seconds - new frequency is -100
Cbc0001I Search completed - best objective 0, took 200 iterations and 0 nodes (0.88 seconds)
Cbc0035I Maximum depth 0, 0 variables fixed on reduced cost
Cuts at root node changed objective from 0 to 0
Probing was tried 4 times and created 17 cuts of which 0 were active after adding rounds of cuts (0.041171 seconds)
Gomory was tried 4 times and created 27 cuts of which 0 were active after adding rounds of cuts (0.007679 seconds)
Knapsack was tried 4 times and created 18 cuts of which 0 were active after adding rounds of cuts (0.016811 seconds)
Clique was tried 4 times and created 0 cuts of which 0 were active after adding rounds of cuts (0.000483 seconds)
OddWheel was tried 4 times and created 0 cuts of which 0 were active after adding rounds of cuts (0.002308 seconds)
MixedIntegerRounding2 was tried 4 times and created 7 cuts of which 0 were active after adding rounds of cuts (0.003007 seconds)
FlowCover was tried 4 times and created 0 cuts of which 0 were active after adding rounds of cuts (0.000392 seconds)
TwoMirCuts was tried 4 times and created 60 cuts of which 0 were active after adding rounds of cuts (0.01303 seconds)
ZeroHalf was tried 4 times and created 12 cuts of which 0 were active after adding rounds of cuts (0.003213 seconds)

Result - Optimal solution found
Objective value:                0
Enumerated nodes:               0
Total iterations:               200
Time (CPU seconds):             0.925888
Time (Wallclock seconds):       0.886783
Total time (CPU seconds):       0.941693   (Wallclock seconds):       0.89617
